%block positions_abs
C	0.0	0.0	0.0	#!	group	Td	
H	0.628	0.628	0.628	#!	group	Td	
H	0.628	-0.628	-0.628	#!	group	Td	
H	-0.628	0.628	-0.628	#!	group	Td	
H	-0.628	-0.628	0.628	#!	group	Td	
Si	-0.3344497445200806	0.0	0.0	#!	group	C2v	
O	0.2935502554799194	0.628	0.628	#!	group	C2v	
O	0.2935502554799194	-0.628	-0.628	#!	group	C2v	
N	1.106	-2.5363844354968953e-17	0.0	#!	group	D5h	
N	0.3417727957999999	1.051868507	0.0	#!	group	D5h	
N	-0.8947727958	0.650090489	0.0	#!	group	D5h	
N	-0.8947727958	-0.650090489	0.0	#!	group	D5h	
N	0.3417727957999999	-1.051868507	0.0	#!	group	D5h	
C	1.2	0.0	0.0	#!	group	D6h	
C	0.6	1.0392304845	0.0	#!	group	D6h	
C	-0.6	1.0392304845	0.0	#!	group	D6h	
C	-1.2	0.0	0.0	#!	group	D6h	
C	-0.6	-1.0392304845	0.0	#!	group	D6h	
C	0.6	-1.0392304845	0.0	#!	group	D6h	
C	0.37693685332306215	-0.20269050000000455	-0.16942688896250147	#!	group	C1	
C	1.7277608544230625	-0.20269050000000455	-2.4778682511625014	#!	group	C1	
C	4.317563146723062	0.2026904999999939	0.1694268889374988	#!	group	C1	
C	-6.422260854376938	0.2026904999999939	2.4778682512374988	#!	group	C1	
C	0.7216987114230622	1.018426499999995	-0.7258883274625014	#!	group	C1	
C	1.382998996223062	1.018426499999995	-1.9214068127625015	#!	group	C1	
C	3.9728012885230624	-1.0184265000000057	0.7258883274374988	#!	group	C1	
C	-6.077498996276939	-1.0184265000000057	1.9214068127374984	#!	group	C1	
H	-0.09968383577693807	-0.21885600000000593	0.6284678662374987	#!	group	C1	
H	-2.0050138718769377	-0.21885600000000593	2.018827273937499	#!	group	C1	
H	4.794183835823063	0.21885599999999528	-0.6284678662625014	#!	group	C1	
H	-2.689486128076938	0.21885599999999528	-2.0188272738625015	#!	group	C1	
H	0.5083310619230619	1.8167534999999955	-0.2980854327625013	#!	group	C1	
H	1.5963666458230619	1.8167534999999955	-2.349209707362501	#!	group	C1	
H	4.186168938123062	-1.8167535000000052	0.29808543273749866	#!	group	C1	
H	-6.290866645776938	-1.8167535000000052	2.3492097073374985	#!	group	C1	
N	0.7197889004494931	-0.9713366183543515	0.5771104999999996	#!	group	D2	
N	1.1313009004494923	-0.4263216183543515	-0.5771105000000003	#!	group	D2	
C	-0.3934490995505069	-0.5492426183543515	1.1542204999999996	#!	group	D2	
C	0.4205229004494928	0.5288003816456486	-1.1542205000000003	#!	group	D2	
C	-1.160232099550507	0.46171338164564846	0.5977594999999998	#!	group	D2	
C	-0.7617490995505074	0.9894713816456484	-0.5977595000000003	#!	group	D2	
H	-0.6677470995505077	-0.9393566183543515	1.9521154999999997	#!	group	D2	
H	-1.9259170995505075	0.7724833816456484	1.0255624999999995	#!	group	D2	
H	-1.2702950995505073	1.6408043816456483	-1.0255625000000004	#!	group	D2	
H	0.7206239004494925	0.8994323816456484	-1.9521155000000003	#!	group	D2	
O	0.0	0.0	-1.1575735194075687	#!	group	C_v	
Cl	0.0	0.0	0.5224264805924312	#!	group	C_v	
C	0.77	-3.6353927590493385e-08	0.0	#!	group	D2h	
C	-0.7700000000000001	-3.6353927590493385e-08	0.0	#!	group	D2h	
O	-1.4206499999999997	1.1269588636460723	0.0	#!	group	D2h	
O	-1.4206499999999997	-1.1269588363539276	0.0	#!	group	D2h	
O	1.42065	1.1269588636460723	0.0	#!	group	D2h	
O	1.42065	-1.1269588363539276	0.0	#!	group	D2h	
%endblock positions_abs

%block insert
%endblock insert

%block volume_distribution
numpy.normal.normal	100	10	
%endblock volume_distribution

