%block positions_abs
%endblock positions_abs

%block insert
%endblock insert

%block volume_distribution
numpy.normal.normal	100	10	
%endblock volume_distribution

